(declare-fun v7 ()Bool          )
(declare-fun v10 () (_ BitVec 11))
(assert
(let (($e2 (_ bv121 8)))
(let (($e16 (_ bv484 9)))
(let (($e28 (_ bv63 6)))
(let (($e31 (_ bv0 4)))
(let (($e36 (_ bv127 7)))
(let (($e102                  v7 ))
(let (($e112               $e102 ))
(let (($e115                            $e112       ))
(let (($e116              $e115 ))
(let (($e117             $e116 ))
(let (($e289                    $e36      ))
(let (($e290 (concat $e289 $e2)))
(let (($e295                    $e28      ))
(let (($e296 (concat $e295 $e16)))
(let (($e297               $e296       ))
(let (($e299                    $e297       ))
(let (($e300         $e299       ))
(let (($e315                    $e300      ))
(let (($e316               $e315                ))
(let (($e317        $e316       ))
(let (($e318                      $e290 ))
(let (($e364 (concat $e31 v10)))
(let (($e365 (bvand $e318 $e364)))
(let (($e366 (bvand (bvnot $e318) (bvnot $e364))))
(let (($e367 (bvand (bvnot $e366) (bvnot $e365))))
(let (($e540 (bvand        $e317  $e367)))
(let (($e788         $e117       ))
(let (($e789                  $e788 ))
(let (($e790              $e789          ))
(let (($e791             $e790 ))
             (ite        $e791  $e540 $e367)
                                                                                                                                                                                                                                                                                                                                                                                                                                                                                                                                                                                                                                                                                                                                                                                                                                                                                                                                                                                                                                                                                                                                                                                                                                                                                                                                                                                                                                                                                                                                                                                                                                                                                                                                                                                                                                                                                                                                                                                                                                                                                                                                                                                                                                                                                                                                                                                                                                                                                                                                                                                                                                                                                                                                                                                                                                                                                                                                                                                                                                                                                                                                                                                                                                                                                                                                                                                                                                                                                                                                                                                                                                                                                                                                          ))))                                                                                                                                                                                                                                                       )                                                                                                                                                                            ))))                                             ))))              )) )))    ))                                                                                                                                                                           )))  )         )                                                )    )  )           )             ) )
